c File: flat50_3_0.col
c
c SOURCE: Joseph Culberson (joe@cs.ualberta.ca)
c DESCRIPTION: Quasi-random coloring problem
c              generated with flatness = 0
c                             probability = 0.139
c                             known coloring = 3
c                             random seed = 1884
c              Creation Date:  Tue Jun  9 12:20:16 1998
c Maximum degree = 8 Minimum degree = 1
c p edge 50 115
c cnf created by edge2cnf
p cnf 150 545
-1 -2 0
-1 -3 0
-2 -3 0
1 2 3 0
-4 -5 0
-4 -6 0
-5 -6 0
4 5 6 0
-7 -8 0
-7 -9 0
-8 -9 0
7 8 9 0
-10 -11 0
-10 -12 0
-11 -12 0
10 11 12 0
-13 -14 0
-13 -15 0
-14 -15 0
13 14 15 0
-16 -17 0
-16 -18 0
-17 -18 0
16 17 18 0
-19 -20 0
-19 -21 0
-20 -21 0
19 20 21 0
-22 -23 0
-22 -24 0
-23 -24 0
22 23 24 0
-25 -26 0
-25 -27 0
-26 -27 0
25 26 27 0
-28 -29 0
-28 -30 0
-29 -30 0
28 29 30 0
-31 -32 0
-31 -33 0
-32 -33 0
31 32 33 0
-34 -35 0
-34 -36 0
-35 -36 0
34 35 36 0
-37 -38 0
-37 -39 0
-38 -39 0
37 38 39 0
-40 -41 0
-40 -42 0
-41 -42 0
40 41 42 0
-43 -44 0
-43 -45 0
-44 -45 0
43 44 45 0
-46 -47 0
-46 -48 0
-47 -48 0
46 47 48 0
-49 -50 0
-49 -51 0
-50 -51 0
49 50 51 0
-52 -53 0
-52 -54 0
-53 -54 0
52 53 54 0
-55 -56 0
-55 -57 0
-56 -57 0
55 56 57 0
-58 -59 0
-58 -60 0
-59 -60 0
58 59 60 0
-61 -62 0
-61 -63 0
-62 -63 0
61 62 63 0
-64 -65 0
-64 -66 0
-65 -66 0
64 65 66 0
-67 -68 0
-67 -69 0
-68 -69 0
67 68 69 0
-70 -71 0
-70 -72 0
-71 -72 0
70 71 72 0
-73 -74 0
-73 -75 0
-74 -75 0
73 74 75 0
-76 -77 0
-76 -78 0
-77 -78 0
76 77 78 0
-79 -80 0
-79 -81 0
-80 -81 0
79 80 81 0
-82 -83 0
-82 -84 0
-83 -84 0
82 83 84 0
-85 -86 0
-85 -87 0
-86 -87 0
85 86 87 0
-88 -89 0
-88 -90 0
-89 -90 0
88 89 90 0
-91 -92 0
-91 -93 0
-92 -93 0
91 92 93 0
-94 -95 0
-94 -96 0
-95 -96 0
94 95 96 0
-97 -98 0
-97 -99 0
-98 -99 0
97 98 99 0
-100 -101 0
-100 -102 0
-101 -102 0
100 101 102 0
-103 -104 0
-103 -105 0
-104 -105 0
103 104 105 0
-106 -107 0
-106 -108 0
-107 -108 0
106 107 108 0
-109 -110 0
-109 -111 0
-110 -111 0
109 110 111 0
-112 -113 0
-112 -114 0
-113 -114 0
112 113 114 0
-115 -116 0
-115 -117 0
-116 -117 0
115 116 117 0
-118 -119 0
-118 -120 0
-119 -120 0
118 119 120 0
-121 -122 0
-121 -123 0
-122 -123 0
121 122 123 0
-124 -125 0
-124 -126 0
-125 -126 0
124 125 126 0
-127 -128 0
-127 -129 0
-128 -129 0
127 128 129 0
-130 -131 0
-130 -132 0
-131 -132 0
130 131 132 0
-133 -134 0
-133 -135 0
-134 -135 0
133 134 135 0
-136 -137 0
-136 -138 0
-137 -138 0
136 137 138 0
-139 -140 0
-139 -141 0
-140 -141 0
139 140 141 0
-142 -143 0
-142 -144 0
-143 -144 0
142 143 144 0
-145 -146 0
-145 -147 0
-146 -147 0
145 146 147 0
-148 -149 0
-148 -150 0
-149 -150 0
148 149 150 0
-76 -1 0
-77 -2 0
-78 -3 0
-97 -1 0
-98 -2 0
-99 -3 0
-124 -1 0
-125 -2 0
-126 -3 0
-52 -4 0
-53 -5 0
-54 -6 0
-124 -4 0
-125 -5 0
-126 -6 0
-142 -4 0
-143 -5 0
-144 -6 0
-52 -7 0
-53 -8 0
-54 -9 0
-64 -7 0
-65 -8 0
-66 -9 0
-109 -7 0
-110 -8 0
-111 -9 0
-127 -7 0
-128 -8 0
-129 -9 0
-142 -7 0
-143 -8 0
-144 -9 0
-64 -10 0
-65 -11 0
-66 -12 0
-67 -10 0
-68 -11 0
-69 -12 0
-97 -10 0
-98 -11 0
-99 -12 0
-115 -10 0
-116 -11 0
-117 -12 0
-55 -13 0
-56 -14 0
-57 -15 0
-64 -13 0
-65 -14 0
-66 -15 0
-112 -13 0
-113 -14 0
-114 -15 0
-118 -13 0
-119 -14 0
-120 -15 0
-130 -13 0
-131 -14 0
-132 -15 0
-139 -13 0
-140 -14 0
-141 -15 0
-73 -16 0
-74 -17 0
-75 -18 0
-112 -16 0
-113 -17 0
-114 -18 0
-139 -16 0
-140 -17 0
-141 -18 0
-148 -16 0
-149 -17 0
-150 -18 0
-67 -19 0
-68 -20 0
-69 -21 0
-82 -19 0
-83 -20 0
-84 -21 0
-91 -19 0
-92 -20 0
-93 -21 0
-94 -19 0
-95 -20 0
-96 -21 0
-115 -19 0
-116 -20 0
-117 -21 0
-127 -19 0
-128 -20 0
-129 -21 0
-55 -22 0
-56 -23 0
-57 -24 0
-79 -22 0
-80 -23 0
-81 -24 0
-106 -22 0
-107 -23 0
-108 -24 0
-136 -22 0
-137 -23 0
-138 -24 0
-142 -22 0
-143 -23 0
-144 -24 0
-100 -25 0
-101 -26 0
-102 -27 0
-115 -25 0
-116 -26 0
-117 -27 0
-118 -25 0
-119 -26 0
-120 -27 0
-121 -25 0
-122 -26 0
-123 -27 0
-130 -25 0
-131 -26 0
-132 -27 0
-58 -28 0
-59 -29 0
-60 -30 0
-64 -28 0
-65 -29 0
-66 -30 0
-85 -28 0
-86 -29 0
-87 -30 0
-73 -31 0
-74 -32 0
-75 -33 0
-115 -31 0
-116 -32 0
-117 -33 0
-121 -31 0
-122 -32 0
-123 -33 0
-127 -31 0
-128 -32 0
-129 -33 0
-94 -34 0
-95 -35 0
-96 -36 0
-100 -34 0
-101 -35 0
-102 -36 0
-124 -34 0
-125 -35 0
-126 -36 0
-130 -34 0
-131 -35 0
-132 -36 0
-70 -37 0
-71 -38 0
-72 -39 0
-124 -37 0
-125 -38 0
-126 -39 0
-133 -37 0
-134 -38 0
-135 -39 0
-145 -37 0
-146 -38 0
-147 -39 0
-52 -40 0
-53 -41 0
-54 -42 0
-67 -40 0
-68 -41 0
-69 -42 0
-70 -40 0
-71 -41 0
-72 -42 0
-100 -40 0
-101 -41 0
-102 -42 0
-118 -40 0
-119 -41 0
-120 -42 0
-136 -40 0
-137 -41 0
-138 -42 0
-79 -43 0
-80 -44 0
-81 -45 0
-85 -43 0
-86 -44 0
-87 -45 0
-94 -43 0
-95 -44 0
-96 -45 0
-97 -43 0
-98 -44 0
-99 -45 0
-106 -43 0
-107 -44 0
-108 -45 0
-70 -46 0
-71 -47 0
-72 -48 0
-76 -46 0
-77 -47 0
-78 -48 0
-91 -46 0
-92 -47 0
-93 -48 0
-145 -46 0
-146 -47 0
-147 -48 0
-148 -46 0
-149 -47 0
-150 -48 0
-76 -49 0
-77 -50 0
-78 -51 0
-85 -49 0
-86 -50 0
-87 -51 0
-91 -49 0
-92 -50 0
-93 -51 0
-94 -49 0
-95 -50 0
-96 -51 0
-118 -49 0
-119 -50 0
-120 -51 0
-148 -49 0
-149 -50 0
-150 -51 0
-103 -52 0
-104 -53 0
-105 -54 0
-118 -52 0
-119 -53 0
-120 -54 0
-106 -55 0
-107 -56 0
-108 -57 0
-109 -55 0
-110 -56 0
-111 -57 0
-136 -55 0
-137 -56 0
-138 -57 0
-139 -55 0
-140 -56 0
-141 -57 0
-115 -61 0
-116 -62 0
-117 -63 0
-130 -61 0
-131 -62 0
-132 -63 0
-103 -64 0
-104 -65 0
-105 -66 0
-145 -64 0
-146 -65 0
-147 -66 0
-130 -67 0
-131 -68 0
-132 -69 0
-136 -67 0
-137 -68 0
-138 -69 0
-115 -70 0
-116 -71 0
-117 -72 0
-124 -70 0
-125 -71 0
-126 -72 0
-127 -70 0
-128 -71 0
-129 -72 0
-136 -70 0
-137 -71 0
-138 -72 0
-127 -73 0
-128 -74 0
-129 -75 0
-106 -76 0
-107 -77 0
-108 -78 0
-139 -79 0
-140 -80 0
-141 -81 0
-106 -82 0
-107 -83 0
-108 -84 0
-118 -82 0
-119 -83 0
-120 -84 0
-148 -82 0
-149 -83 0
-150 -84 0
-103 -85 0
-104 -86 0
-105 -87 0
-142 -85 0
-143 -86 0
-144 -87 0
-118 -88 0
-119 -89 0
-120 -90 0
-127 -88 0
-128 -89 0
-129 -90 0
-133 -88 0
-134 -89 0
-135 -90 0
-121 -91 0
-122 -92 0
-123 -93 0
-130 -91 0
-131 -92 0
-132 -93 0
-133 -91 0
-134 -92 0
-135 -93 0
-139 -91 0
-140 -92 0
-141 -93 0
-121 -94 0
-122 -95 0
-123 -96 0
-133 -94 0
-134 -95 0
-135 -96 0
-136 -94 0
-137 -95 0
-138 -96 0
-118 -97 0
-119 -98 0
-120 -99 0
-106 -100 0
-107 -101 0
-108 -102 0
-133 -100 0
-134 -101 0
-135 -102 0
